69
1 0 42
2 0 31
2 1 22
3 0 34
3 1 8
3 2 16
4 0 25
4 1 27
4 2 25
4 3 32
5 0 23
5 1 36
5 2 6
5 3 20
5 4 10
6 0 34
6 1 21
6 2 44
6 3 15
6 4 7
6 5 5
7 0 14
7 1 16
7 2 36
7 3 45
7 4 14
7 5 39
7 6 35
8 0 14
8 1 11
8 2 18
8 3 15
8 4 31
8 5 38
8 6 4
8 7 7
9 0 38
9 1 14
9 2 11
9 3 20
9 4 2
9 5 40
9 6 19
9 7 33
9 8 39
10 0 40
10 1 29
10 2 13
10 3 19
10 4 25
10 5 40
10 6 26
10 7 39
10 8 39
10 9 38
11 0 13
11 1 29
11 2 11
11 3 33
11 4 31
11 5 8
11 6 45
11 7 31
11 8 12
11 9 34
11 10 28
12 0 34
12 1 17
12 2 33
12 3 14
12 4 38
12 5 34
12 6 24
12 7 32
12 8 44
12 9 19
12 10 39
12 11 19
13 0 29
13 1 19
13 2 12
13 3 24
13 4 11
13 5 10
13 6 31
13 7 41
13 8 40
13 9 34
13 10 5
13 11 25
13 12 45
14 0 29
14 1 4
14 2 41
14 3 19
14 4 32
14 5 33
14 6 41
14 7 5
14 8 5
14 9 28
14 10 13
14 11 27
14 12 32
14 13 31
15 0 25
15 1 33
15 2 9
15 3 45
15 4 14
15 5 19
15 6 25
15 7 42
15 8 37
15 9 15
15 10 20
15 11 11
15 12 42
15 13 39
15 14 35
16 0 2
16 1 7
16 2 36
16 3 35
16 4 30
16 5 24
16 6 23
16 7 36
16 8 34
16 9 12
16 10 20
16 11 7
16 12 20
16 13 8
16 14 24
16 15 23
17 0 3
17 1 17
17 2 21
17 3 32
17 4 45
17 5 15
17 6 7
17 7 38
17 8 27
17 9 44
17 10 44
17 11 9
17 12 1
17 13 12
17 14 6
17 15 23
17 16 35
18 0 23
18 1 31
18 2 1
18 3 8
18 4 36
18 5 43
18 6 44
18 7 43
18 8 28
18 9 9
18 10 15
18 11 27
18 12 33
18 13 1
18 14 22
18 15 25
18 16 26
18 17 29
19 0 39
19 1 3
19 2 26
19 3 16
19 4 8
19 5 10
19 6 42
19 7 12
19 8 42
19 9 35
19 10 3
19 11 27
19 12 26
19 13 29
19 14 21
19 15 9
19 16 45
19 17 2
19 18 43
20 0 20
20 1 39
20 2 38
20 3 19
20 4 13
20 5 18
20 6 23
20 7 23
20 8 2
20 9 36
20 10 37
20 11 43
20 12 42
20 13 33
20 14 5
20 15 18
20 16 15
20 17 7
20 18 31
20 19 1
21 0 1
21 1 20
21 2 38
21 3 10
21 4 1
21 5 42
21 6 19
21 7 11
21 8 6
21 9 43
21 10 5
21 11 17
21 12 24
21 13 9
21 14 31
21 15 15
21 16 23
21 17 43
21 18 37
21 19 31
21 20 34
22 0 20
22 1 27
22 2 26
22 3 17
22 4 21
22 5 13
22 6 12
22 7 27
22 8 39
22 9 24
22 10 36
22 11 7
22 12 38
22 13 29
22 14 11
22 15 20
22 16 39
22 17 32
22 18 12
22 19 45
22 20 28
22 21 6
23 0 28
23 1 10
23 2 30
23 3 44
23 4 13
23 5 45
23 6 15
23 7 2
23 8 2
23 9 32
23 10 9
23 11 9
23 12 33
23 13 1
23 14 6
23 15 15
23 16 33
23 17 11
23 18 39
23 19 3
23 20 45
23 21 6
23 22 18
24 0 1
24 1 7
24 2 26
24 3 36
24 4 18
24 5 5
24 6 18
24 7 8
24 8 8
24 9 10
24 10 13
24 11 41
24 12 36
24 13 16
24 14 27
24 15 23
24 16 33
24 17 40
24 18 18
24 19 17
24 20 41
24 21 35
24 22 11
24 23 32
25 0 44
25 1 12
25 2 16
25 3 3
25 4 44
25 5 20
25 6 14
25 7 24
25 8 30
25 9 20
25 10 13
25 11 12
25 12 45
25 13 19
25 14 24
25 15 4
25 16 44
25 17 27
25 18 34
25 19 16
25 20 12
25 21 25
25 22 14
25 23 45
25 24 3
26 0 37
26 1 27
26 2 42
26 3 16
26 4 4
26 5 3
26 6 42
26 7 16
26 8 11
26 9 18
26 10 30
26 11 28
26 12 42
26 13 16
26 14 26
26 15 25
26 16 41
26 17 40
26 18 35
26 19 4
26 20 35
26 21 21
26 22 5
26 23 20
26 24 2
26 25 8
27 0 8
27 1 38
27 2 41
27 3 28
27 4 35
27 5 7
27 6 38
27 7 37
27 8 9
27 9 41
27 10 43
27 11 31
27 12 11
27 13 19
27 14 36
27 15 30
27 16 1
27 17 22
27 18 6
27 19 32
27 20 41
27 21 15
27 22 29
27 23 29
27 24 34
27 25 32
27 26 28
28 0 28
28 1 5
28 2 43
28 3 23
28 4 7
28 5 7
28 6 39
28 7 11
28 8 43
28 9 11
28 10 23
28 11 4
28 12 30
28 13 40
28 14 7
28 15 20
28 16 40
28 17 29
28 18 17
28 19 35
28 20 32
28 21 26
28 22 26
28 23 24
28 24 42
28 25 26
28 26 31
28 27 37
29 0 5
29 1 20
29 2 35
29 3 8
29 4 7
29 5 43
29 6 37
29 7 29
29 8 32
29 9 28
29 10 40
29 11 7
29 12 7
29 13 43
29 14 17
29 15 36
29 16 10
29 17 43
29 18 8
29 19 17
29 20 15
29 21 30
29 22 44
29 23 24
29 24 27
29 25 34
29 26 37
29 27 14
29 28 6
30 0 22
30 1 36
30 2 35
30 3 26
30 4 35
30 5 23
30 6 15
30 7 18
30 8 23
30 9 32
30 10 26
30 11 32
30 12 14
30 13 4
30 14 39
30 15 32
30 16 34
30 17 10
30 18 13
30 19 27
30 20 26
30 21 7
30 22 11
30 23 4
30 24 10
30 25 6
30 26 45
30 27 25
30 28 38
30 29 24
31 0 9
31 1 18
31 2 5
31 3 33
31 4 33
31 5 21
31 6 12
31 7 35
31 8 26
31 9 9
31 10 23
31 11 43
31 12 42
31 13 10
31 14 16
31 15 30
31 16 9
31 17 15
31 18 22
31 19 3
31 20 33
31 21 7
31 22 42
31 23 24
31 24 43
31 25 41
31 26 25
31 27 3
31 28 20
31 29 6
31 30 45
32 0 30
32 1 24
32 2 6
32 3 19
32 4 38
32 5 37
32 6 33
32 7 2
32 8 25
32 9 39
32 10 18
32 11 19
32 12 6
32 13 30
32 14 42
32 15 3
32 16 13
32 17 16
32 18 12
32 19 3
32 20 43
32 21 8
32 22 45
32 23 8
32 24 30
32 25 45
32 26 35
32 27 4
32 28 41
32 29 21
32 30 34
32 31 2
33 0 18
33 1 45
33 2 24
33 3 40
33 4 9
33 5 42
33 6 11
33 7 28
33 8 15
33 9 25
33 10 9
33 11 18
33 12 14
33 13 45
33 14 28
33 15 45
33 16 21
33 17 1
33 18 35
33 19 10
33 20 13
33 21 17
33 22 18
33 23 20
33 24 1
33 25 4
33 26 11
33 27 19
33 28 3
33 29 39
33 30 6
33 31 16
33 32 21
34 0 27
34 1 43
34 2 15
34 3 43
34 4 31
34 5 13
34 6 37
34 7 22
34 8 13
34 9 25
34 10 6
34 11 22
34 12 12
34 13 22
34 14 32
34 15 43
34 16 3
34 17 19
34 18 25
34 19 16
34 20 33
34 21 9
34 22 24
34 23 32
34 24 13
34 25 35
34 26 7
34 27 24
34 28 25
34 29 27
34 30 42
34 31 23
34 32 29
34 33 17
35 0 36
35 1 35
35 2 11
35 3 37
35 4 33
35 5 32
35 6 43
35 7 28
35 8 39
35 9 4
35 10 43
35 11 27
35 12 33
35 13 9
35 14 26
35 15 28
35 16 14
35 17 26
35 18 8
35 19 7
35 20 45
35 21 40
35 22 33
35 23 14
35 24 35
35 25 20
35 26 23
35 27 23
35 28 6
35 29 25
35 30 21
35 31 30
35 32 24
35 33 12
35 34 14
36 0 45
36 1 28
36 2 19
36 3 23
36 4 7
36 5 7
36 6 11
36 7 20
36 8 12
36 9 22
36 10 30
36 11 34
36 12 42
36 13 18
36 14 1
36 15 5
36 16 19
36 17 2
36 18 3
36 19 32
36 20 23
36 21 32
36 22 16
36 23 26
36 24 34
36 25 28
36 26 20
36 27 24
36 28 9
36 29 35
36 30 14
36 31 43
36 32 26
36 33 35
36 34 5
36 35 42
37 0 39
37 1 40
37 2 14
37 3 4
37 4 22
37 5 9
37 6 16
37 7 33
37 8 23
37 9 10
37 10 36
37 11 15
37 12 40
37 13 13
37 14 28
37 15 20
37 16 11
37 17 2
37 18 33
37 19 22
37 20 3
37 21 17
37 22 7
37 23 11
37 24 3
37 25 38
37 26 25
37 27 27
37 28 11
37 29 20
37 30 40
37 31 8
37 32 39
37 33 7
37 34 9
37 35 42
37 36 14
38 0 34
38 1 4
38 2 28
38 3 24
38 4 28
38 5 20
38 6 36
38 7 29
38 8 38
38 9 8
38 10 44
38 11 45
38 12 26
38 13 13
38 14 30
38 15 18
38 16 21
38 17 10
38 18 37
38 19 26
38 20 38
38 21 35
38 22 38
38 23 2
38 24 35
38 25 33
38 26 44
38 27 6
38 28 8
38 29 36
38 30 35
38 31 14
38 32 29
38 33 1
38 34 12
38 35 25
38 36 35
38 37 13
39 0 35
39 1 17
39 2 5
39 3 44
39 4 11
39 5 13
39 6 29
39 7 20
39 8 10
39 9 23
39 10 45
39 11 11
39 12 11
39 13 30
39 14 32
39 15 13
39 16 21
39 17 39
39 18 30
39 19 44
39 20 36
39 21 34
39 22 5
39 23 19
39 24 45
39 25 41
39 26 37
39 27 44
39 28 14
39 29 45
39 30 5
39 31 45
39 32 21
39 33 32
39 34 32
39 35 13
39 36 35
39 37 44
39 38 1
40 0 32
40 1 36
40 2 6
40 3 3
40 4 7
40 5 9
40 6 12
40 7 4
40 8 15
40 9 9
40 10 35
40 11 32
40 12 33
40 13 37
40 14 25
40 15 5
40 16 7
40 17 24
40 18 37
40 19 33
40 20 41
40 21 42
40 22 20
40 23 7
40 24 36
40 25 8
40 26 33
40 27 18
40 28 38
40 29 35
40 30 36
40 31 40
40 32 6
40 33 23
40 34 24
40 35 27
40 36 32
40 37 43
40 38 35
40 39 8
41 0 25
41 1 35
41 2 18
41 3 2
41 4 10
41 5 31
41 6 12
41 7 6
41 8 13
41 9 28
41 10 23
41 11 3
41 12 11
41 13 39
41 14 5
41 15 24
41 16 1
41 17 2
41 18 12
41 19 45
41 20 12
41 21 41
41 22 32
41 23 33
41 24 28
41 25 38
41 26 42
41 27 15
41 28 41
41 29 8
41 30 16
41 31 31
41 32 15
41 33 35
41 34 17
41 35 17
41 36 11
41 37 25
41 38 6
41 39 37
41 40 33
42 0 42
42 1 21
42 2 34
42 3 15
42 4 14
42 5 13
42 6 37
42 7 19
42 8 44
42 9 17
42 10 11
42 11 18
42 12 10
42 13 12
42 14 6
42 15 19
42 16 24
42 17 36
42 18 27
42 19 14
42 20 1
42 21 21
42 22 35
42 23 8
42 24 21
42 25 37
42 26 34
42 27 26
42 28 41
42 29 9
42 30 24
42 31 19
42 32 15
42 33 33
42 34 38
42 35 38
42 36 36
42 37 29
42 38 19
42 39 32
42 40 30
42 41 34
43 0 34
43 1 36
43 2 7
43 3 6
43 4 39
43 5 23
43 6 24
43 7 15
43 8 18
43 9 24
43 10 38
43 11 7
43 12 41
43 13 9
43 14 37
43 15 26
43 16 25
43 17 17
43 18 25
43 19 34
43 20 5
43 21 32
43 22 34
43 23 14
43 24 20
43 25 7
43 26 2
43 27 34
43 28 26
43 29 34
43 30 15
43 31 3
43 32 40
43 33 2
43 34 14
43 35 16
43 36 29
43 37 43
43 38 38
43 39 38
43 40 7
43 41 27
43 42 12
44 0 25
44 1 34
44 2 24
44 3 16
44 4 34
44 5 15
44 6 24
44 7 17
44 8 33
44 9 40
44 10 35
44 11 12
44 12 21
44 13 26
44 14 37
44 15 44
44 16 17
44 17 6
44 18 9
44 19 34
44 20 21
44 21 31
44 22 11
44 23 20
44 24 39
44 25 4
44 26 18
44 27 22
44 28 10
44 29 33
44 30 17
44 31 45
44 32 10
44 33 6
44 34 28
44 35 4
44 36 5
44 37 37
44 38 9
44 39 21
44 40 7
44 41 23
44 42 2
44 43 36
45 0 9
45 1 4
45 2 40
45 3 26
45 4 45
45 5 27
45 6 33
45 7 5
45 8 39
45 9 33
45 10 16
45 11 15
45 12 37
45 13 29
45 14 19
45 15 15
45 16 9
45 17 10
45 18 45
45 19 33
45 20 27
45 21 39
45 22 34
45 23 15
45 24 18
45 25 34
45 26 2
45 27 36
45 28 22
45 29 42
45 30 25
45 31 10
45 32 31
45 33 29
45 34 17
45 35 35
45 36 5
45 37 40
45 38 25
45 39 42
45 40 21
45 41 5
45 42 31
45 43 31
45 44 3
46 0 21
46 1 40
46 2 6
46 3 43
46 4 45
46 5 9
46 6 5
46 7 16
46 8 33
46 9 17
46 10 35
46 11 37
46 12 34
46 13 36
46 14 13
46 15 1
46 16 11
46 17 20
46 18 2
46 19 28
46 20 22
46 21 28
46 22 17
46 23 31
46 24 16
46 25 33
46 26 43
46 27 6
46 28 13
46 29 9
46 30 3
46 31 24
46 32 15
46 33 22
46 34 12
46 35 14
46 36 22
46 37 35
46 38 27
46 39 41
46 40 19
46 41 26
46 42 11
46 43 20
46 44 15
46 45 24
47 0 29
47 1 17
47 2 28
47 3 12
47 4 25
47 5 29
47 6 22
47 7 34
47 8 42
47 9 27
47 10 30
47 11 31
47 12 3
47 13 32
47 14 1
47 15 43
47 16 38
47 17 27
47 18 25
47 19 3
47 20 35
47 21 15
47 22 9
47 23 2
47 24 16
47 25 30
47 26 13
47 27 19
47 28 29
47 29 26
47 30 33
47 31 8
47 32 13
47 33 37
47 34 11
47 35 21
47 36 25
47 37 35
47 38 43
47 39 2
47 40 34
47 41 45
47 42 30
47 43 25
47 44 11
47 45 25
47 46 11
48 0 27
48 1 43
48 2 24
48 3 38
48 4 43
48 5 12
48 6 27
48 7 21
48 8 4
48 9 10
48 10 26
48 11 17
48 12 20
48 13 41
48 14 10
48 15 38
48 16 39
48 17 10
48 18 33
48 19 6
48 20 32
48 21 14
48 22 34
48 23 27
48 24 15
48 25 30
48 26 31
48 27 16
48 28 23
48 29 15
48 30 40
48 31 1
48 32 27
48 33 44
48 34 40
48 35 15
48 36 25
48 37 30
48 38 28
48 39 25
48 40 15
48 41 25
48 42 20
48 43 16
48 44 41
48 45 39
48 46 17
48 47 5
49 0 16
49 1 1
49 2 44
49 3 8
49 4 18
49 5 23
49 6 24
49 7 16
49 8 20
49 9 1
49 10 27
49 11 31
49 12 17
49 13 4
49 14 7
49 15 18
49 16 38
49 17 40
49 18 43
49 19 14
49 20 27
49 21 14
49 22 17
49 23 18
49 24 39
49 25 7
49 26 19
49 27 12
49 28 19
49 29 8
49 30 27
49 31 19
49 32 19
49 33 29
49 34 14
49 35 39
49 36 43
49 37 4
49 38 28
49 39 19
49 40 26
49 41 25
49 42 6
49 43 29
49 44 36
49 45 1
49 46 25
49 47 17
49 48 39
50 0 6
50 1 3
50 2 12
50 3 26
50 4 36
50 5 23
50 6 27
50 7 38
50 8 8
50 9 14
50 10 28
50 11 5
50 12 8
50 13 11
50 14 3
50 15 14
50 16 18
50 17 36
50 18 17
50 19 15
50 20 9
50 21 22
50 22 1
50 23 32
50 24 16
50 25 29
50 26 41
50 27 36
50 28 15
50 29 13
50 30 34
50 31 19
50 32 17
50 33 4
50 34 34
50 35 10
50 36 36
50 37 42
50 38 13
50 39 42
50 40 4
50 41 2
50 42 7
50 43 11
50 44 39
50 45 1
50 46 26
50 47 2
50 48 37
50 49 8
51 0 16
51 1 16
51 2 5
51 3 2
51 4 20
51 5 2
51 6 31
51 7 35
51 8 2
51 9 9
51 10 34
51 11 4
51 12 2
51 13 34
51 14 23
51 15 37
51 16 13
51 17 37
51 18 5
51 19 5
51 20 5
51 21 32
51 22 21
51 23 3
51 24 38
51 25 21
51 26 33
51 27 12
51 28 32
51 29 44
51 30 27
51 31 17
51 32 41
51 33 7
51 34 2
51 35 41
51 36 39
51 37 15
51 38 41
51 39 39
51 40 7
51 41 39
51 42 26
51 43 25
51 44 18
51 45 4
51 46 21
51 47 16
51 48 11
51 49 32
51 50 19
52 0 22
52 1 44
52 2 44
52 3 43
52 4 35
52 5 33
52 6 15
52 7 34
52 8 22
52 9 12
52 10 2
52 11 21
52 12 37
52 13 20
52 14 25
52 15 10
52 16 45
52 17 10
52 18 18
52 19 22
52 20 18
52 21 42
52 22 15
52 23 17
52 24 29
52 25 24
52 26 44
52 27 10
52 28 23
52 29 34
52 30 25
52 31 17
52 32 44
52 33 6
52 34 16
52 35 10
52 36 38
52 37 40
52 38 27
52 39 10
52 40 28
52 41 3
52 42 13
52 43 4
52 44 37
52 45 26
52 46 24
52 47 26
52 48 35
52 49 12
52 50 18
52 51 34
53 0 19
53 1 24
53 2 45
53 3 6
53 4 43
53 5 27
53 6 35
53 7 32
53 8 12
53 9 32
53 10 41
53 11 13
53 12 11
53 13 44
53 14 23
53 15 36
53 16 32
53 17 13
53 18 33
53 19 30
53 20 26
53 21 37
53 22 9
53 23 2
53 24 3
53 25 4
53 26 24
53 27 40
53 28 32
53 29 13
53 30 17
53 31 40
53 32 38
53 33 21
53 34 32
53 35 43
53 36 11
53 37 3
53 38 43
53 39 26
53 40 5
53 41 24
53 42 25
53 43 10
53 44 8
53 45 45
53 46 29
53 47 1
53 48 43
53 49 31
53 50 11
53 51 36
53 52 24
54 0 1
54 1 6
54 2 30
54 3 45
54 4 37
54 5 42
54 6 20
54 7 32
54 8 7
54 9 26
54 10 38
54 11 45
54 12 25
54 13 1
54 14 4
54 15 34
54 16 33
54 17 29
54 18 12
54 19 23
54 20 6
54 21 37
54 22 37
54 23 12
54 24 30
54 25 40
54 26 40
54 27 32
54 28 28
54 29 8
54 30 18
54 31 19
54 32 42
54 33 35
54 34 41
54 35 9
54 36 24
54 37 20
54 38 7
54 39 24
54 40 8
54 41 39
54 42 9
54 43 41
54 44 32
54 45 34
54 46 36
54 47 31
54 48 23
54 49 40
54 50 37
54 51 12
54 52 39
54 53 6
55 0 9
55 1 5
55 2 14
55 3 32
55 4 2
55 5 1
55 6 11
55 7 17
55 8 7
55 9 14
55 10 17
55 11 19
55 12 17
55 13 34
55 14 39
55 15 25
55 16 17
55 17 4
55 18 44
55 19 7
55 20 5
55 21 36
55 22 1
55 23 10
55 24 12
55 25 26
55 26 18
55 27 5
55 28 37
55 29 40
55 30 18
55 31 16
55 32 39
55 33 29
55 34 5
55 35 15
55 36 29
55 37 16
55 38 9
55 39 2
55 40 31
55 41 34
55 42 33
55 43 23
55 44 7
55 45 35
55 46 8
55 47 38
55 48 34
55 49 1
55 50 22
55 51 37
55 52 8
55 53 20
55 54 23
56 0 35
56 1 21
56 2 28
56 3 16
56 4 27
56 5 14
56 6 7
56 7 25
56 8 8
56 9 29
56 10 32
56 11 42
56 12 4
56 13 10
56 14 41
56 15 29
56 16 3
56 17 17
56 18 14
56 19 36
56 20 43
56 21 30
56 22 33
56 23 25
56 24 21
56 25 12
56 26 42
56 27 32
56 28 2
56 29 17
56 30 25
56 31 5
56 32 9
56 33 8
56 34 13
56 35 11
56 36 36
56 37 29
56 38 16
56 39 15
56 40 24
56 41 26
56 42 16
56 43 10
56 44 40
56 45 29
56 46 2
56 47 2
56 48 18
56 49 14
56 50 37
56 51 33
56 52 27
56 53 31
56 54 37
56 55 29
57 0 24
57 1 44
57 2 43
57 3 36
57 4 13
57 5 44
57 6 11
57 7 24
57 8 3
57 9 34
57 10 22
57 11 32
57 12 33
57 13 20
57 14 32
57 15 35
57 16 3
57 17 36
57 18 14
57 19 44
57 20 28
57 21 3
57 22 32
57 23 4
57 24 25
57 25 6
57 26 44
57 27 40
57 28 25
57 29 9
57 30 22
57 31 25
57 32 21
57 33 3
57 34 45
57 35 38
57 36 30
57 37 19
57 38 20
57 39 12
57 40 4
57 41 6
57 42 7
57 43 6
57 44 24
57 45 23
57 46 41
57 47 35
57 48 18
57 49 22
57 50 15
57 51 28
57 52 22
57 53 32
57 54 39
57 55 31
57 56 42
58 0 2
58 1 23
58 2 37
58 3 33
58 4 11
58 5 32
58 6 35
58 7 25
58 8 32
58 9 13
58 10 35
58 11 19
58 12 11
58 13 8
58 14 15
58 15 33
58 16 31
58 17 25
58 18 19
58 19 28
58 20 31
58 21 18
58 22 8
58 23 33
58 24 35
58 25 31
58 26 40
58 27 23
58 28 39
58 29 37
58 30 37
58 31 12
58 32 25
58 33 36
58 34 6
58 35 2
58 36 43
58 37 22
58 38 6
58 39 7
58 40 41
58 41 31
58 42 16
58 43 7
58 44 43
58 45 8
58 46 14
58 47 16
58 48 7
58 49 33
58 50 2
58 51 17
58 52 35
58 53 36
58 54 23
58 55 1
58 56 25
58 57 21
59 0 34
59 1 39
59 2 35
59 3 31
59 4 17
59 5 1
59 6 27
59 7 8
59 8 15
59 9 3
59 10 15
59 11 9
59 12 27
59 13 13
59 14 23
59 15 7
59 16 45
59 17 21
59 18 44
59 19 4
59 20 11
59 21 38
59 22 24
59 23 41
59 24 39
59 25 14
59 26 22
59 27 16
59 28 42
59 29 29
59 30 23
59 31 3
59 32 15
59 33 15
59 34 23
59 35 37
59 36 9
59 37 35
59 38 11
59 39 17
59 40 40
59 41 8
59 42 11
59 43 1
59 44 14
59 45 41
59 46 45
59 47 6
59 48 35
59 49 7
59 50 26
59 51 44
59 52 19
59 53 40
59 54 45
59 55 39
59 56 5
59 57 29
59 58 15
60 0 14
60 1 10
60 2 24
60 3 45
60 4 26
60 5 36
60 6 30
60 7 43
60 8 7
60 9 38
60 10 31
60 11 32
60 12 38
60 13 43
60 14 10
60 15 12
60 16 18
60 17 17
60 18 17
60 19 23
60 20 41
60 21 8
60 22 35
60 23 30
60 24 35
60 25 20
60 26 19
60 27 36
60 28 20
60 29 7
60 30 27
60 31 20
60 32 16
60 33 26
60 34 36
60 35 39
60 36 6
60 37 11
60 38 45
60 39 28
60 40 29
60 41 29
60 42 37
60 43 13
60 44 14
60 45 20
60 46 31
60 47 29
60 48 14
60 49 38
60 50 40
60 51 29
60 52 6
60 53 8
60 54 43
60 55 37
60 56 27
60 57 2
60 58 45
60 59 8
61 0 35
61 1 27
61 2 38
61 3 28
61 4 41
61 5 28
61 6 2
61 7 22
61 8 19
61 9 31
61 10 14
61 11 26
61 12 29
61 13 20
61 14 28
61 15 6
61 16 2
61 17 35
61 18 13
61 19 7
61 20 38
61 21 25
61 22 36
61 23 21
61 24 3
61 25 45
61 26 37
61 27 7
61 28 7
61 29 44
61 30 14
61 31 11
61 32 39
61 33 1
61 34 42
61 35 6
61 36 34
61 37 9
61 38 35
61 39 24
61 40 44
61 41 39
61 42 34
61 43 20
61 44 17
61 45 30
61 46 13
61 47 13
61 48 15
61 49 43
61 50 13
61 51 3
61 52 20
61 53 6
61 54 3
61 55 14
61 56 8
61 57 5
61 58 19
61 59 8
61 60 10
62 0 45
62 1 19
62 2 42
62 3 42
62 4 43
62 5 31
62 6 30
62 7 8
62 8 16
62 9 35
62 10 45
62 11 31
62 12 8
62 13 5
62 14 6
62 15 12
62 16 4
62 17 9
62 18 24
62 19 40
62 20 14
62 21 40
62 22 43
62 23 19
62 24 36
62 25 33
62 26 34
62 27 17
62 28 6
62 29 6
62 30 35
62 31 1
62 32 32
62 33 14
62 34 39
62 35 34
62 36 36
62 37 27
62 38 10
62 39 27
62 40 11
62 41 27
62 42 2
62 43 7
62 44 30
62 45 9
62 46 42
62 47 19
62 48 38
62 49 11
62 50 14
62 51 10
62 52 22
62 53 30
62 54 31
62 55 15
62 56 16
62 57 8
62 58 24
62 59 23
62 60 30
62 61 2
63 0 2
63 1 27
63 2 20
63 3 11
63 4 12
63 5 8
63 6 32
63 7 8
63 8 1
63 9 37
63 10 1
63 11 41
63 12 42
63 13 4
63 14 35
63 15 11
63 16 13
63 17 42
63 18 13
63 19 18
63 20 29
63 21 3
63 22 18
63 23 1
63 24 16
63 25 18
63 26 45
63 27 31
63 28 17
63 29 33
63 30 14
63 31 17
63 32 12
63 33 12
63 34 13
63 35 7
63 36 39
63 37 20
63 38 24
63 39 23
63 40 19
63 41 24
63 42 31
63 43 41
63 44 38
63 45 31
63 46 18
63 47 14
63 48 33
63 49 19
63 50 40
63 51 42
63 52 43
63 53 36
63 54 45
63 55 22
63 56 2
63 57 39
63 58 15
63 59 34
63 60 44
63 61 44
63 62 20
64 0 39
64 1 34
64 2 44
64 3 39
64 4 2
64 5 39
64 6 28
64 7 28
64 8 22
64 9 35
64 10 30
64 11 7
64 12 33
64 13 44
64 14 7
64 15 33
64 16 31
64 17 39
64 18 13
64 19 7
64 20 41
64 21 6
64 22 36
64 23 15
64 24 10
64 25 40
64 26 20
64 27 9
64 28 23
64 29 41
64 30 11
64 31 12
64 32 12
64 33 36
64 34 34
64 35 12
64 36 20
64 37 33
64 38 4
64 39 39
64 40 15
64 41 21
64 42 37
64 43 44
64 44 39
64 45 10
64 46 44
64 47 5
64 48 16
64 49 7
64 50 12
64 51 25
64 52 30
64 53 12
64 54 43
64 55 16
64 56 17
64 57 41
64 58 33
64 59 29
64 60 5
64 61 20
64 62 7
64 63 27
65 0 27
65 1 24
65 2 3
65 3 2
65 4 34
65 5 10
65 6 34
65 7 23
65 8 45
65 9 27
65 10 31
65 11 14
65 12 24
65 13 11
65 14 20
65 15 3
65 16 14
65 17 40
65 18 33
65 19 17
65 20 4
65 21 30
65 22 43
65 23 37
65 24 23
65 25 40
65 26 26
65 27 33
65 28 10
65 29 26
65 30 10
65 31 36
65 32 30
65 33 42
65 34 15
65 35 45
65 36 33
65 37 7
65 38 31
65 39 5
65 40 23
65 41 8
65 42 18
65 43 42
65 44 6
65 45 14
65 46 42
65 47 5
65 48 1
65 49 6
65 50 5
65 51 30
65 52 3
65 53 35
65 54 32
65 55 13
65 56 43
65 57 17
65 58 24
65 59 24
65 60 16
65 61 37
65 62 16
65 63 34
65 64 21
66 0 27
66 1 7
66 2 7
66 3 34
66 4 23
66 5 15
66 6 18
66 7 17
66 8 32
66 9 45
66 10 43
66 11 28
66 12 8
66 13 19
66 14 29
66 15 36
66 16 25
66 17 18
66 18 7
66 19 41
66 20 43
66 21 39
66 22 41
66 23 14
66 24 23
66 25 10
66 26 2
66 27 11
66 28 10
66 29 8
66 30 31
66 31 23
66 32 33
66 33 41
66 34 29
66 35 19
66 36 5
66 37 3
66 38 10
66 39 5
66 40 18
66 41 36
66 42 41
66 43 42
66 44 5
66 45 39
66 46 43
66 47 12
66 48 16
66 49 17
66 50 7
66 51 35
66 52 24
66 53 3
66 54 20
66 55 36
66 56 40
66 57 34
66 58 1
66 59 15
66 60 6
66 61 23
66 62 4
66 63 16
66 64 2
66 65 44
67 0 29
67 1 37
67 2 31
67 3 20
67 4 19
67 5 21
67 6 39
67 7 37
67 8 24
67 9 17
67 10 28
67 11 24
67 12 1
67 13 31
67 14 10
67 15 10
67 16 18
67 17 1
67 18 28
67 19 22
67 20 3
67 21 28
67 22 28
67 23 7
67 24 40
67 25 8
67 26 12
67 27 33
67 28 32
67 29 39
67 30 28
67 31 15
67 32 11
67 33 42
67 34 34
67 35 37
67 36 35
67 37 44
67 38 4
67 39 8
67 40 31
67 41 2
67 42 24
67 43 24
67 44 21
67 45 21
67 46 7
67 47 33
67 48 2
67 49 31
67 50 3
67 51 7
67 52 16
67 53 21
67 54 6
67 55 34
67 56 34
67 57 35
67 58 22
67 59 12
67 60 14
67 61 33
67 62 40
67 63 35
67 64 16
67 65 5
67 66 20
68 0 23
68 1 40
68 2 15
68 3 16
68 4 23
68 5 18
68 6 9
68 7 34
68 8 5
68 9 24
68 10 19
68 11 20
68 12 38
68 13 22
68 14 35
68 15 14
68 16 17
68 17 7
68 18 37
68 19 1
68 20 25
68 21 7
68 22 1
68 23 36
68 24 38
68 25 32
68 26 38
68 27 21
68 28 23
68 29 29
68 30 21
68 31 23
68 32 18
68 33 3
68 34 33
68 35 8
68 36 15
68 37 24
68 38 34
68 39 14
68 40 6
68 41 36
68 42 14
68 43 24
68 44 3
68 45 18
68 46 36
68 47 17
68 48 7
68 49 21
68 50 21
68 51 5
68 52 34
68 53 6
68 54 5
68 55 6
68 56 45
68 57 27
68 58 30
68 59 5
68 60 16
68 61 19
68 62 11
68 63 8
68 64 11
68 65 11
68 66 14
68 67 4
